120
[12,13,14,15,16,17,18,19,20,21,22,23,24,25,26,27,28,29,30,31,32,33,34,35,36,37,38,39,40,41,42,43,44,45,46,47,48,49,50,51,52,53,54,55,56,57,58,59,60,61,62,63,64,65,66,67,68,69,70,71,72,73,74,75,76,77,78,79,80,81,82,83,84]
[7,8,12,15,22,17,15,9,15,21,9,9,18,13,17,17,7,15,20,19,14,15,20,6,21,10,11,11,11,13,14,15,16,17,15,20,15,13,13,13,10,18,17,17,11,14,9,9,8,20,11,17,8,15,13,10,19,18,12,17,15,13,4,11,9,16,9,12,12,10,15,17,16]
